
Gurobi 10.0.0 (win64) logging started Thu Jun 13 12:31:11 2024

Set parameter LogFile to value "C:\Users\ealvarezq\Documents\GitHub\Comillas\Models\JointResearch\05. Models\06.Benchmarking\E.Representative_days_based_on_Line_Benefits_OptModel\RTS24_mod2_ByStages_nc40/openStarNet_RTS24_mod2_ByStages_nc40.log"
Set parameter Method to value 2
Set parameter MIPFocus to value 1
Set parameter Presolve to value 2
Set parameter RINS to value 100
Set parameter MIPGap to value 0.01
Set parameter Threads to value 9
Set parameter TimeLimit to value 259200
Set parameter IterationLimit to value 760000000
Gurobi Optimizer version 10.0.0 build v10.0.0rc2 (win64)

CPU model: Intel(R) Core(TM) i7-8700 CPU @ 3.20GHz, instruction set [SSE2|AVX|AVX2]
Thread count: 6 physical cores, 12 logical processors, using up to 9 threads

Optimize a model with 14203 rows, 9598 columns and 38689 nonzeros
Model fingerprint: 0xd035ffa9
Variable types: 9577 continuous, 21 integer (21 binary)
Coefficient statistics:
  Matrix range     [6e-04, 2e+03]
  Objective range  [1e+00, 1e+00]
  Bounds range     [6e-05, 2e+00]
  RHS range        [6e-05, 2e+00]
Presolve removed 8455 rows and 4853 columns
Presolve time: 0.06s
Presolved: 5748 rows, 4745 columns, 20745 nonzeros
Variable types: 4724 continuous, 21 integer (21 binary)
Found heuristic solution: objective 119.9538052
Root relaxation presolve removed 5 rows and 5 columns
Root relaxation presolved: 5743 rows, 4740 columns, 20735 nonzeros

Root barrier log...

Ordering time: 0.00s

Barrier statistics:
 Dense cols : 21
 AA' NZ     : 3.853e+04
 Factor NZ  : 1.106e+05 (roughly 5 MB of memory)
 Factor Ops : 2.270e+06 (less than 1 second per iteration)
 Threads    : 9

                  Objective                Residual
Iter       Primal          Dual         Primal    Dual     Compl     Time
   0   2.71125001e+06 -9.60866990e+07  2.22e+01 6.73e+02  5.88e+04     0s
   1   8.91361932e+05 -5.18299511e+07  7.23e+00 3.37e+01  1.75e+04     0s
   2   6.04651830e+04 -3.58458440e+07  4.92e-01 1.21e+01  3.46e+03     0s
   3   1.68228747e+04 -3.80720431e+06  9.69e-02 1.07e-09  3.30e+02     0s
   4   7.20366079e+03 -2.20719323e+05  2.95e-03 8.81e-11  1.72e+01     0s
   5   2.70297896e+03 -3.32300207e+04  4.40e-13 3.60e-10  2.68e+00     0s
   6   1.09709693e+03 -8.22909033e+03  3.94e-13 7.96e-11  6.95e-01     0s
   7   5.22733538e+02 -2.57761988e+03  1.06e-13 2.38e-11  2.31e-01     0s
   8   3.59571266e+02 -8.59280329e+02  7.38e-14 7.84e-12  9.09e-02     0s
   9   1.30406959e+02 -1.78684070e+02  3.97e-13 1.99e-12  2.30e-02     0s
  10   9.93826900e+01 -5.94313630e+00  2.08e-13 4.41e-12  7.85e-03     0s
  11   7.66091229e+01  2.64729295e+01  9.82e-13 1.61e-12  3.74e-03     0s
  12   7.08133486e+01  4.44977555e+01  5.60e-13 2.39e-12  1.96e-03     0s
  13   6.51859405e+01  5.01434711e+01  2.25e-12 1.38e-12  1.12e-03     0s
  14   6.07548966e+01  5.52504530e+01  1.71e-12 2.31e-12  4.10e-04     0s
  15   5.93906692e+01  5.63998147e+01  2.23e-12 2.26e-12  2.23e-04     0s
  16   5.87987722e+01  5.76378304e+01  4.81e-12 2.48e-12  8.65e-05     0s
  17   5.82277087e+01  5.80621967e+01  3.74e-12 3.15e-12  1.23e-05     0s
  18   5.81749723e+01  5.81279878e+01  5.08e-12 3.14e-12  3.50e-06     0s
  19   5.81618927e+01  5.81468347e+01  4.34e-12 4.07e-12  1.12e-06     0s
  20   5.81566689e+01  5.81526437e+01  8.16e-12 1.71e-12  3.00e-07     0s
  21   5.81548263e+01  5.81537056e+01  2.04e-10 2.71e-12  8.35e-08     0s
  22   5.81542206e+01  5.81540655e+01  1.31e-10 3.45e-12  1.16e-08     0s
  23   5.81541182e+01  5.81541061e+01  1.98e-11 1.91e-12  9.08e-10     0s
  24   5.81541124e+01  5.81541124e+01  3.49e-11 3.95e-12  2.26e-12     0s

Barrier solved model in 24 iterations and 0.22 seconds (0.20 work units)
Optimal objective 5.81541124e+01


Root relaxation: objective 5.815411e+01, 727 iterations, 0.13 seconds (0.09 work units)

    Nodes    |    Current Node    |     Objective Bounds      |     Work
 Expl Unexpl |  Obj  Depth IntInf | Incumbent    BestBd   Gap | It/Node Time

     0     0   58.15411    0   12  119.95381   58.15411  51.5%     -    0s
     0     0   58.27964    0   10  119.95381   58.27964  51.4%     -    0s
H    0     0                     115.5343555   58.27964  49.6%     -    0s
H    0     0                     103.1891703   58.27964  43.5%     -    0s
     0     0   58.90292    0    9  103.18917   58.90292  42.9%     -    0s
     0     0   59.13812    0    9  103.18917   59.13812  42.7%     -    0s
     0     0   59.35487    0    8  103.18917   59.35487  42.5%     -    0s
     0     0   59.35498    0    8  103.18917   59.35498  42.5%     -    0s
     0     0   59.37716    0    8  103.18917   59.37716  42.5%     -    1s
     0     0   59.37716    0    8  103.18917   59.37716  42.5%     -    1s
H    0     0                      78.3822317   59.37716  24.2%     -    2s
     0     2   59.37716    0    8   78.38223   59.37716  24.2%     -    2s
H   13    16                      78.0643693   60.44764  22.6%   293    2s
H  330   160                      77.9535301   63.96428  17.9%   197    3s
   617   208     cutoff   12        77.95353   65.96145  15.4%   182    5s
H  815   236                      77.5691423   68.12562  12.2%   178    5s
H  996   265                      77.1289636   69.79235  9.51%   170    5s
* 1355   263              21      77.0874282   71.83720  6.81%   163    6s
H 1528   270                      76.9194697   72.28122  6.03%   159    8s
  2038   107   75.09505   10    4   76.91947   74.52731  3.11%   147   10s

Cutting planes:
  MIR: 223
  Relax-and-lift: 39

Explored 2382 nodes (322289 simplex iterations) in 14.32 seconds (17.28 work units)
Thread count was 9 (of 12 available processors)

Solution count 10: 76.9195 77.0874 77.129 ... 119.954

Optimal solution found (tolerance 1.00e-02)
Best objective 7.691946973884e+01, best bound 7.691946973884e+01, gap 0.0000%

Gurobi 10.0.0 (win64) logging started Thu Jun 13 12:31:28 2024

Set parameter LogFile to value "C:\Users\ealvarezq\Documents\GitHub\Comillas\Models\JointResearch\05. Models\06.Benchmarking\E.Representative_days_based_on_Line_Benefits_OptModel\RTS24_mod2_ByStages_nc40/openStarNet_RTS24_mod2_ByStages_nc40.log"
Set parameter Method to value 2
Set parameter MIPFocus to value 1
Set parameter Presolve to value 2
Set parameter RINS to value 100
Set parameter MIPGap to value 0.01
Set parameter Threads to value 9
Set parameter TimeLimit to value 259200
Set parameter IterationLimit to value 760000000
Gurobi Optimizer version 10.0.0 build v10.0.0rc2 (win64)

CPU model: Intel(R) Core(TM) i7-8700 CPU @ 3.20GHz, instruction set [SSE2|AVX|AVX2]
Thread count: 6 physical cores, 12 logical processors, using up to 9 threads

Optimize a model with 14203 rows, 9577 columns and 35308 nonzeros
Model fingerprint: 0x97cb1a2d
Coefficient statistics:
  Matrix range     [6e-04, 2e+03]
  Objective range  [1e+00, 1e+00]
  Bounds range     [6e-05, 2e+00]
  RHS range        [6e-05, 2e+01]
Presolve removed 11963 rows and 5545 columns
Presolve time: 0.02s
Presolved: 2240 rows, 4116 columns, 10123 nonzeros

Ordering time: 0.00s

Barrier statistics:
 AA' NZ     : 5.889e+03
 Factor NZ  : 2.192e+04 (roughly 2 MB of memory)
 Factor Ops : 3.196e+05 (less than 1 second per iteration)
 Threads    : 1

                  Objective                Residual
Iter       Primal          Dual         Primal    Dual     Compl     Time
   0   2.33330944e+06 -4.63901139e+07  1.57e+01 3.48e+03  5.90e+04     0s
   1   1.57735024e+05 -2.59606849e+07  1.02e+00 2.91e-11  6.47e+03     0s
   2   5.60552688e+04 -7.78740657e+06  3.06e-01 4.37e-11  1.49e+03     0s
   3   1.99594936e+04 -1.57287770e+06  1.05e-02 4.73e-11  2.27e+02     0s
   4   7.36043230e+03 -1.74176060e+05  4.32e-12 2.73e-11  2.53e+01     0s
   5   2.07117028e+03 -3.10662499e+04  3.58e-12 1.46e-11  4.61e+00     0s
   6   1.11220004e+03 -8.27404561e+03  2.00e-12 5.12e-12  1.31e+00     0s
   7   4.89605270e+02 -3.14329400e+03  2.25e-12 8.82e-12  5.06e-01     0s
   8   2.16500637e+02 -4.62147579e+02  8.30e-13 1.09e-11  9.45e-02     0s
   9   1.01565747e+02 -4.21216281e+01  5.33e-12 7.93e-12  2.00e-02     0s
  10   8.91328909e+01  3.74893076e+01  2.59e-12 9.00e-12  7.19e-03     0s
  11   8.24573444e+01  5.87517414e+01  5.38e-12 7.91e-12  3.30e-03     0s
  12   7.89481224e+01  6.99059845e+01  8.12e-12 5.80e-12  1.26e-03     0s
  13   7.74874763e+01  7.55144063e+01  1.46e-11 6.54e-12  2.75e-04     0s
  14   7.70403732e+01  7.66513018e+01  4.18e-11 7.87e-12  5.42e-05     0s
  15   7.69595273e+01  7.68685665e+01  3.95e-11 6.89e-12  1.27e-05     0s
  16   7.69368470e+01  7.69085083e+01  2.61e-11 2.16e-12  3.94e-06     0s
  17   7.69223385e+01  7.69179584e+01  3.36e-11 1.02e-11  6.10e-07     0s
  18   7.69195030e+01  7.69194335e+01  5.12e-11 7.58e-12  9.68e-09     0s
  19   7.69194701e+01  7.69194695e+01  4.71e-10 7.86e-12  8.73e-11     0s
  20   7.69194697e+01  7.69194697e+01  4.01e-10 5.34e-12  8.73e-14     0s

Barrier solved model in 20 iterations and 0.05 seconds (0.05 work units)
Optimal objective 7.69194697e+01

Crossover log...

     454 DPushes remaining with DInf 0.0000000e+00                 0s

     138 PPushes remaining with PInf 0.0000000e+00                 0s
       0 PPushes remaining with PInf 0.0000000e+00                 0s

  Push phase complete: Pinf 0.0000000e+00, Dinf 1.0939655e-12      0s

Iteration    Objective       Primal Inf.    Dual Inf.      Time
     141    7.6919470e+01   0.000000e+00   0.000000e+00      0s

Use crossover to convert LP symmetric solution to basic solution...
Crossover log...

       0 DPushes remaining with DInf 0.0000000e+00                 0s

      80 PPushes remaining with PInf 0.0000000e+00                 0s
       0 PPushes remaining with PInf 0.0000000e+00                 0s

  Push phase complete: Pinf 0.0000000e+00, Dinf 1.1667395e-12      0s

Iteration    Objective       Primal Inf.    Dual Inf.      Time
     231    7.6919470e+01   0.000000e+00   0.000000e+00      0s

Solved in 231 iterations and 0.08 seconds (0.06 work units)
Optimal objective  7.691946974e+01
